12
-1 35 19 53 99 45 1 59 65 59 7 36
11 -1 4 17 21 47 8 93 47 57 42 29
52 45 -1 77 81 88 96 79 81 71 34 44
87 11 87 -1 31 89 73 7 88 29 42 82
2 26 74 32 -1 81 3 65 21 35 84 3
67 95 51 20 96 -1 94 44 30 88 44 5
56 19 79 11 34 86 -1 78 30 11 64 81
46 2 62 15 51 37 12 -1 78 93 70 5
82 64 57 58 67 86 3 57 -1 37 37 62
40 26 33 8 76 94 3 44 21 -1 27 10
85 66 98 28 69 86 75 27 26 14 -1 42
85 84 11 95 84 27 3 13 97 67 20 -1
